#              Generated by Buildcell
#
# at 10:13:36 (GMT+1.0) 3rd May 2023
# in /u/vld/hert5155/notebooks/tutorials
# on magnetite.chem.ox.ac.uk
# by hert5155
#
# compiler GCC version 8.5.0 20210514 (Red Hat 8.5.0-2)
# options -cpp -mtune=generic -march=x86-64 -g -O0
#
# seed -1229766328  1938188995   -36114881   427962371  -677858289 -1394636766 -1204404566  -973443714   393557707  -768435101    40717062   760048043 -1322270373  1955545350 -1858367352   376586981  -309830922  1289838618 -1767929566 -1711249128   801841143  -713315516 -1714893933 -1115721901 -1586295294 -2043840967  1059465612  1584631382 -1888048375 -2018964185    64088639  -619375709 -1362485089
#
#      Author: C. J. Pickard (cjp20@cam.ac.uk)
#                Space group: P32
#

%BLOCK LATTICE_ABC
      4.09873      5.90717      5.90717
    120.00000     90.00000     90.00000
%ENDBLOCK LATTICE_ABC

%BLOCK POSITIONS_FRAC
  Si        0.3268775        0.4995952        0.0715157
  Si        0.6602108        0.9284843        0.4280795
  Si        0.9935442        0.5719205        0.5004048
  Si        0.2938612        0.0315223        0.1611710
  Si        0.6271946        0.8388290        0.8703513
  Si        0.9605279        0.1296487        0.9684777
%ENDBLOCK POSITIONS_FRAC

SNAP_TO_SYMMETRY
SYMMETRY_GENERATE

